AoPS/c6h2804292p24717435.smt2
(set-info :smt-lib-version 2.6)
(set-logic AUFNIRA)
(set-info :source |
Generated by: Mirek Olšák, Mikoláš Janota, Chad E. Brown
Generated on: 2024-04-14
Application: Mathematics challenges involving function synthesis
From a collection by: Vít Musil
Source url: https://prase.cz/library/FunkcionalniRovniceVM/FunkcionalniRovniceVM.pdf
Original source: c6h2804292p24717435
|)
(set-info :license "https://creativecommons.org/licenses/by-nc/4.0/")
(set-info :category "crafted")
(set-info :status sat)

; Header
(declare-fun f (Real) Real)

; Equations
(assert (forall ((a Real) (b Real) (c Real) (d Real)) (<= (+ (* (f (- a b)) (f (- c d))) (* (f (- a d)) (f (- b c)))) (* (- a c) (f (- b d))))))

; Find all possible f

(check-sat)
(exit)
(get-model)
